Welcome to the CBC MILP Solver 
Version: Trunk
Build Date: Apr 16 2020 

Starting solution of the Linear programming relaxation problem using Primal Simplex

Using Python-MIP package version 1.8.1
Machines:  4 Jobs:  4
Order: 
Job  0 : machine 0 ( 10 ) machine 3 ( 1 ) machine 2 ( 6 ) machine 1 ( 7 ) 
Job  1 : machine 0 ( 1 ) machine 3 ( 7 ) machine 1 ( 5 ) machine 2 ( 8 ) 
Job  2 : machine 3 ( 9 ) machine 2 ( 3 ) machine 1 ( 7 ) machine 0 ( 1 ) 
Job  3 : machine 1 ( 7 ) machine 3 ( 3 ) machine 0 ( 9 ) machine 2 ( 10 ) 
K:  44
Job  0 , e: machine  0 ( 0 ) machine  1 ( 17 ) machine  2 ( 11 ) machine  3 ( 10 ) 
Job  1 , e: machine  0 ( 0 ) machine  1 ( 8 ) machine  2 ( 13 ) machine  3 ( 1 ) 
Job  2 , e: machine  0 ( 19 ) machine  1 ( 12 ) machine  2 ( 9 ) machine  3 ( 0 ) 
Job  3 , e: machine  0 ( 10 ) machine  1 ( 0 ) machine  2 ( 19 ) machine  3 ( 7 ) 
Job  0 , f: machine  0 ( 14 ) machine  1 ( 0 ) machine  2 ( 7 ) machine  3 ( 13 ) 
Job  1 , f: machine  0 ( 20 ) machine  1 ( 8 ) machine  2 ( 0 ) machine  3 ( 13 ) 
Job  2 , f: machine  0 ( 0 ) machine  1 ( 1 ) machine  2 ( 8 ) machine  3 ( 11 ) 
Job  3 , f: machine  0 ( 10 ) machine  1 ( 22 ) machine  2 ( 0 ) machine  3 ( 19 ) 
EST and LST:
Job: 0 Machine: 0 EST: 0 LST: 20
Job: 0 Machine: 1 EST: 17 LST: 37
Job: 0 Machine: 2 EST: 11 LST: 31
Job: 0 Machine: 3 EST: 10 LST: 30
Job: 1 Machine: 0 EST: 0 LST: 23
Job: 1 Machine: 1 EST: 8 LST: 31
Job: 1 Machine: 2 EST: 13 LST: 36
Job: 1 Machine: 3 EST: 1 LST: 24
Job: 2 Machine: 0 EST: 19 LST: 43
Job: 2 Machine: 1 EST: 12 LST: 36
Job: 2 Machine: 2 EST: 9 LST: 33
Job: 2 Machine: 3 EST: 0 LST: 24
Job: 3 Machine: 0 EST: 10 LST: 25
Job: 3 Machine: 1 EST: 0 LST: 15
Job: 3 Machine: 2 EST: 19 LST: 34
Job: 3 Machine: 3 EST: 7 LST: 22
Order:
Job: 0 Machine: 0 = 0 
Job: 0 Machine: 1 = 3 
Job: 0 Machine: 2 = 2 
Job: 0 Machine: 3 = 1 
Job: 1 Machine: 0 = 0 
Job: 1 Machine: 1 = 2 
Job: 1 Machine: 2 = 3 
Job: 1 Machine: 3 = 1 
Job: 2 Machine: 0 = 3 
Job: 2 Machine: 1 = 2 
Job: 2 Machine: 2 = 1 
Job: 2 Machine: 3 = 0 
Job: 3 Machine: 0 = 2 
Job: 3 Machine: 1 = 0 
Job: 3 Machine: 2 = 3 
Job: 3 Machine: 3 = 1 
Distances:
Job 0, Machine 0 -> Machine 3: distance 10
Job 0, Machine 0 -> Machine 2: distance 11
Job 0, Machine 0 -> Machine 1: distance 17
Job 0, Machine 3 -> Machine 2: distance 1
Job 0, Machine 3 -> Machine 1: distance 7
Job 0, Machine 2 -> Machine 1: distance 6
Job 1, Machine 0 -> Machine 3: distance 1
Job 1, Machine 0 -> Machine 1: distance 8
Job 1, Machine 0 -> Machine 2: distance 13
Job 1, Machine 3 -> Machine 1: distance 7
Job 1, Machine 3 -> Machine 2: distance 12
Job 1, Machine 1 -> Machine 2: distance 5
Job 2, Machine 3 -> Machine 2: distance 9
Job 2, Machine 3 -> Machine 1: distance 12
Job 2, Machine 3 -> Machine 0: distance 19
Job 2, Machine 2 -> Machine 1: distance 3
Job 2, Machine 2 -> Machine 0: distance 10
Job 2, Machine 1 -> Machine 0: distance 7
Job 3, Machine 1 -> Machine 3: distance 7
Job 3, Machine 1 -> Machine 0: distance 10
Job 3, Machine 1 -> Machine 2: distance 19
Job 3, Machine 3 -> Machine 0: distance 3
Job 3, Machine 3 -> Machine 2: distance 12
Job 3, Machine 0 -> Machine 2: distance 9
McCormic linearization
{(0, 1), (0, 0), (2, 1), (2, 0), (1, 0), (1, 1)}
[(0, 1), (0, 0), (2, 1), (2, 0), (1, 0), (1, 1)]
obj:  0.6000000000000001
solutions:  1
+ x(0,0) + 0.1x(1,0) 
C:  28.999999999999996
x(0,0) = 0.20	 x(0,1) = 19.00	 x(0,2) = 13.00	 x(0,3) = 10.20	 
x(1,0) = 8.00	 x(1,1) = 16.00	 x(1,2) = 21.00	 x(1,3) = 9.00	 
x(2,0) = 20.20	 x(2,1) = 13.20	 x(2,2) = 10.20	 x(2,3) = 1.20	 
x(3,0) = 10.00	 x(3,1) = 0.00	 x(3,2) = 19.00	 x(3,3) = 7.00	 
y(0,1,0) = 0.37	 y(1,0,0) = 0.63	 
y(0,2,0) = 0.48	 y(2,0,0) = 0.52	 
y(0,3,0) = 0.99	 y(3,0,0) = 0.01	 
y(1,2,0) = 0.30	 y(2,1,0) = 0.70	 
y(1,3,0) = 0.96	 y(3,1,0) = 0.04	 
y(2,3,0) = 0.00	 y(3,2,0) = 1.00	 
y(0,1,1) = 0.48	 y(1,0,1) = 0.52	 
y(0,2,1) = 0.05	 y(2,0,1) = 0.95	 
y(0,3,1) = 0.00	 y(3,0,1) = 1.00	 
y(1,2,1) = 0.12	 y(2,1,1) = 0.88	 
y(1,3,1) = 0.38	 y(3,1,1) = 0.62	 
y(2,3,1) = 0.00	 y(3,2,1) = 1.00	 
y(0,1,2) = 0.48	 y(1,0,2) = 0.52	 
y(0,2,2) = 0.44	 y(2,0,2) = 0.56	 
y(0,3,2) = 1.00	 y(3,0,2) = 0.00	 
y(1,2,2) = 0.00	 y(2,1,2) = 1.00	 
y(1,3,2) = 0.26	 y(3,1,2) = 0.74	 
y(2,3,2) = 0.74	 y(3,2,2) = 0.26	 
y(0,1,3) = 0.28	 y(1,0,3) = 0.72	 
y(0,2,3) = 0.00	 y(2,0,3) = 1.00	 
y(0,3,3) = 0.01	 y(3,0,3) = 0.99	 
y(1,2,3) = 0.04	 y(2,1,3) = 0.96	 
y(1,3,3) = 0.04	 y(3,1,3) = 0.96	 
y(2,3,3) = 0.35	 y(3,2,3) = 0.65	 
{(1, 2), (0, 1), (3, 2), (1, 3), (0, 2), (2, 1), (2, 3), (0, 3), (1, 1)}
obj:  0.9062330228811852
solutions:  1
+ 0.00957655270642669x(1,2) + 0.007962029963772741x(0,1) + 0.019153105412853373x(3,2) + 0.0035298332839392736x(0,2) + 0.005971522472829553x(2,1) + 0.00481340902355355x(2,3) + 0.0037156139830939803x(1,1) 
[(1, 2), (0, 1), (3, 2), (1, 3), (0, 2), (2, 1), (2, 3), (0, 3), (1, 1)]
cliques:  1 mip: 72
C:  30.693816514238407
x(0,0) = 0.67	 x(0,1) = 23.69	 x(0,2) = 17.69	 x(0,3) = 10.67	 
x(1,0) = 3.29	 x(1,1) = 11.29	 x(1,2) = 16.29	 x(1,3) = 4.29	 
x(2,0) = 29.69	 x(2,1) = 22.69	 x(2,2) = 19.69	 x(2,3) = 10.69	 
x(3,0) = 10.00	 x(3,1) = 0.00	 x(3,2) = 19.00	 x(3,3) = 7.00	 
y(0,1,0) = 0.20	 y(1,0,0) = 0.80	 
y(0,2,0) = 0.68	 y(2,0,0) = 0.32	 
y(0,3,0) = 0.85	 y(3,0,0) = 0.15	 
y(1,2,0) = 0.62	 y(2,1,0) = 0.38	 
y(1,3,0) = 0.76	 y(3,1,0) = 0.24	 
y(2,3,0) = 0.00	 y(3,2,0) = 1.00	 
y(0,1,1) = 0.00	 y(1,0,1) = 1.00	 
y(0,2,1) = 0.23	 y(2,0,1) = 0.77	 
y(0,3,1) = 0.00	 y(3,0,1) = 1.00	 
y(1,2,1) = 0.53	 y(2,1,1) = 0.47	 
y(1,3,1) = 0.29	 y(3,1,1) = 0.71	 
y(2,3,1) = 0.00	 y(3,2,1) = 1.00	 
y(0,1,2) = 0.47	 y(1,0,2) = 0.53	 
y(0,2,2) = 0.44	 y(2,0,2) = 0.56	 
y(0,3,2) = 0.74	 y(3,0,2) = 0.26	 
y(1,2,2) = 0.28	 y(2,1,2) = 0.72	 
y(1,3,2) = 0.79	 y(3,1,2) = 0.21	 
y(2,3,2) = 0.78	 y(3,2,2) = 0.22	 
y(0,1,3) = 0.03	 y(1,0,3) = 0.97	 
y(0,2,3) = 0.68	 y(2,0,3) = 0.32	 
y(0,3,3) = 0.03	 y(3,0,3) = 0.97	 
y(1,2,3) = 0.48	 y(2,1,3) = 0.52	 
y(1,3,3) = 0.24	 y(3,1,3) = 0.76	 
y(2,3,3) = 0.00	 y(3,2,3) = 1.00	 
{(1, 3), (0, 0), (3, 3), (3, 0), (2, 3), (1, 0), (0, 3)}
obj:  0.8967123476071531
solutions:  1
+ 0.009210526315789464x(1,3) + 0.06578947368421031x(0,0) + 0.09605263157894738x(3,3) + 0.011842105263157904x(2,3) + 0.0013157894736842118x(0,3) 
[(1, 3), (0, 0), (3, 3), (3, 0), (2, 3), (1, 0), (0, 3)]
cliques:  1 mip: 132
C:  31.288256788109447
x(0,0) = 0.89	 x(0,1) = 24.29	 x(0,2) = 18.09	 x(0,3) = 10.89	 
x(1,0) = 1.10	 x(1,1) = 9.10	 x(1,2) = 14.10	 x(1,3) = 2.10	 
x(2,0) = 30.29	 x(2,1) = 21.44	 x(2,2) = 18.44	 x(2,3) = 9.44	 
x(3,0) = 11.90	 x(3,1) = 1.90	 x(3,2) = 20.90	 x(3,3) = 8.90	 
y(0,1,0) = 0.05	 y(1,0,0) = 0.95	 
y(0,2,0) = 1.00	 y(2,0,0) = 0.00	 
y(0,3,0) = 0.93	 y(3,0,0) = 0.07	 
y(1,2,0) = 0.97	 y(2,1,0) = 0.03	 
y(1,3,0) = 0.72	 y(3,1,0) = 0.28	 
y(2,3,0) = 0.00	 y(3,2,0) = 1.00	 
y(0,1,1) = 0.00	 y(1,0,1) = 1.00	 
y(0,2,1) = 0.69	 y(2,0,1) = 0.31	 
y(0,3,1) = 0.00	 y(3,0,1) = 1.00	 
y(1,2,1) = 0.86	 y(2,1,1) = 0.14	 
y(1,3,1) = 0.66	 y(3,1,1) = 0.34	 
y(2,3,1) = 0.00	 y(3,2,1) = 1.00	 
y(0,1,2) = 0.47	 y(1,0,2) = 0.53	 
y(0,2,2) = 0.16	 y(2,0,2) = 0.84	 
y(0,3,2) = 0.39	 y(3,0,2) = 0.61	 
y(1,2,2) = 0.60	 y(2,1,2) = 0.40	 
y(1,3,2) = 0.95	 y(3,1,2) = 0.05	 
y(2,3,2) = 0.86	 y(3,2,2) = 0.14	 
y(0,1,3) = 0.00	 y(1,0,3) = 1.00	 
y(0,2,3) = 0.48	 y(2,0,3) = 0.52	 
y(0,3,3) = 0.07	 y(3,0,3) = 0.93	 
y(1,2,3) = 0.84	 y(2,1,3) = 0.16	 
y(1,3,3) = 0.82	 y(3,1,3) = 0.18	 
y(2,3,3) = 0.10	 y(3,2,3) = 0.90	 
{(0, 0), (1, 3), (3, 3), (2, 3), (1, 0), (0, 3)}
obj:  0.9311114749268102
solutions:  1
+ 0.0641711229946523x(0,0) + 0.05668449197860963x(1,3) + 0.014973262032085558x(3,3) + 0.05347593582887699x(2,3) + 0.010695187165775413x(0,3) 
[(0, 0), (1, 3), (3, 3), (2, 3), (1, 0), (0, 3)]
cliques:  1 mip: 127
C:  32.15805662297509
x(0,0) = 2.30	 x(0,1) = 25.16	 x(0,2) = 16.14	 x(0,3) = 12.30	 
x(1,0) = 3.65	 x(1,1) = 11.65	 x(1,2) = 16.65	 x(1,3) = 4.65	 
x(2,0) = 30.24	 x(2,1) = 18.16	 x(2,2) = 15.16	 x(2,3) = 6.16	 
x(3,0) = 11.58	 x(3,1) = 1.58	 x(3,2) = 20.99	 x(3,3) = 8.58	 
y(0,1,0) = 0.10	 y(1,0,0) = 0.90	 
y(0,2,0) = 1.00	 y(2,0,0) = 0.00	 
y(0,3,0) = 0.96	 y(3,0,0) = 0.04	 
y(1,2,0) = 0.90	 y(2,1,0) = 0.10	 
y(1,3,0) = 0.93	 y(3,1,0) = 0.07	 
y(2,3,0) = 0.00	 y(3,2,0) = 1.00	 
y(0,1,1) = 0.05	 y(1,0,1) = 0.95	 
y(0,2,1) = -0.00	 y(2,0,1) = 1.00	 
y(0,3,1) = 0.00	 y(3,0,1) = 1.00	 
y(1,2,1) = 0.62	 y(2,1,1) = 0.38	 
y(1,3,1) = 0.08	 y(3,1,1) = 0.92	 
y(2,3,1) = 0.00	 y(3,2,1) = 1.00	 
y(0,1,2) = 0.46	 y(1,0,2) = 0.54	 
y(0,2,2) = 0.08	 y(2,0,2) = 0.92	 
y(0,3,2) = 0.94	 y(3,0,2) = 0.06	 
y(1,2,2) = 0.07	 y(2,1,2) = 0.93	 
y(1,3,2) = 0.85	 y(3,1,2) = 0.15	 
y(2,3,2) = 1.00	 y(3,2,2) = 0.00	 
y(0,1,3) = 0.00	 y(1,0,3) = 1.00	 
y(0,2,3) = 0.12	 y(2,0,3) = 0.88	 
y(0,3,3) = -0.00	 y(3,0,3) = 1.00	 
y(1,2,3) = 0.53	 y(2,1,3) = 0.47	 
y(1,3,3) = 0.42	 y(3,1,3) = 0.58	 
y(2,3,3) = 0.75	 y(3,2,3) = 0.25	 
{(1, 3), (0, 0), (3, 3), (3, 0), (2, 3), (1, 0), (0, 3)}
obj:  0.8902023742721914
solutions:  1
+ 0.05384615384615383x(1,3) + 0.023076923076923075x(3,3) + 0.056410256410256404x(2,3) + 0.0076923076923077005x(0,3) 
[(1, 3), (0, 0), (3, 3), (3, 0), (2, 3), (1, 0), (0, 3)]
cliques:  1 mip: 128
C:  33.00000000000001
x(0,0) = 3.43	 x(0,1) = 22.18	 x(0,2) = 15.66	 x(0,3) = 13.84	 
x(1,0) = 3.22	 x(1,1) = 11.22	 x(1,2) = 16.22	 x(1,3) = 4.22	 
x(2,0) = 32.00	 x(2,1) = 19.57	 x(2,2) = 16.57	 x(2,3) = 7.57	 
x(3,0) = 13.43	 x(3,1) = 3.38	 x(3,2) = 22.43	 x(3,3) = 10.38	 
y(0,1,0) = 0.03	 y(1,0,0) = 0.97	 
y(0,2,0) = 0.91	 y(2,0,0) = 0.09	 
y(0,3,0) = 1.00	 y(3,0,0) = 0.00	 
y(1,2,0) = 0.87	 y(2,1,0) = 0.13	 
y(1,3,0) = 0.62	 y(3,1,0) = 0.38	 
y(2,3,0) = 0.00	 y(3,2,0) = 1.00	 
y(0,1,1) = 0.09	 y(1,0,1) = 0.91	 
y(0,2,1) = 0.48	 y(2,0,1) = 0.52	 
y(0,3,1) = 0.00	 y(3,0,1) = 1.00	 
y(1,2,1) = 0.62	 y(2,1,1) = 0.38	 
y(1,3,1) = 0.44	 y(3,1,1) = 0.56	 
y(2,3,1) = 0.00	 y(3,2,1) = 1.00	 
y(0,1,2) = 0.55	 y(1,0,2) = 0.45	 
y(0,2,2) = 0.16	 y(2,0,2) = 0.84	 
y(0,3,2) = 0.95	 y(3,0,2) = 0.05	 
y(1,2,2) = 0.15	 y(2,1,2) = 0.85	 
y(1,3,2) = 0.93	 y(3,1,2) = 0.07	 
y(2,3,2) = 1.00	 y(3,2,2) = 0.00	 
y(0,1,3) = 0.00	 y(1,0,3) = 1.00	 
y(0,2,3) = 0.16	 y(2,0,3) = 0.84	 
y(0,3,3) = 0.00	 y(3,0,3) = 1.00	 
y(1,2,3) = 0.45	 y(2,1,3) = 0.55	 
y(1,3,3) = 0.38	 y(3,1,3) = 0.62	 
y(2,3,3) = 0.56	 y(3,2,3) = 0.44	 
{(0, 1), (1, 2), (3, 2), (2, 1), (2, 2), (0, 2)}
obj:  0.9265078528515669
solutions:  1
+ 0.014930399640772335x(1,2) + 0.023462056578356545x(3,2) + 0.010103277952402331x(0,2) 
[(0, 1), (1, 2), (3, 2), (2, 1), (2, 2), (0, 2)]
cliques:  1 mip: 102
C:  33.82361303572484
x(0,0) = 3.62	 x(0,1) = 26.27	 x(0,2) = 20.27	 x(0,3) = 15.47	 
x(1,0) = 2.82	 x(1,1) = 10.82	 x(1,2) = 15.82	 x(1,3) = 3.82	 
x(2,0) = 31.79	 x(2,1) = 20.24	 x(2,2) = 17.24	 x(2,3) = 8.24	 
x(3,0) = 13.75	 x(3,1) = 2.12	 x(3,2) = 23.82	 x(3,3) = 9.12	 
y(0,1,0) = 0.01	 y(1,0,0) = 0.99	 
y(0,2,0) = 0.87	 y(2,0,0) = 0.13	 
y(0,3,0) = 1.00	 y(3,0,0) = 0.00	 
y(1,2,0) = 0.88	 y(2,1,0) = 0.12	 
y(1,3,0) = 0.59	 y(3,1,0) = 0.41	 
y(2,3,0) = 0.00	 y(3,2,0) = 1.00	 
y(0,1,1) = 0.00	 y(1,0,1) = 1.00	 
y(0,2,1) = 0.07	 y(2,0,1) = 0.93	 
y(0,3,1) = 0.00	 y(3,0,1) = 1.00	 
y(1,2,1) = 0.69	 y(2,1,1) = 0.31	 
y(1,3,1) = 0.62	 y(3,1,1) = 0.38	 
y(2,3,1) = 0.00	 y(3,2,1) = 1.00	 
y(0,1,2) = 0.25	 y(1,0,2) = 0.75	 
y(0,2,2) = 0.07	 y(2,0,2) = 0.93	 
y(0,3,2) = 0.86	 y(3,0,2) = 0.14	 
y(1,2,2) = 0.19	 y(2,1,2) = 0.81	 
y(1,3,2) = 1.00	 y(3,1,2) = -0.00	 
y(2,3,2) = 1.00	 y(3,2,2) = -0.00	 
y(0,1,3) = 0.00	 y(1,0,3) = 1.00	 
y(0,2,3) = 0.14	 y(2,0,3) = 0.86	 
y(0,3,3) = 0.00	 y(3,0,3) = 1.00	 
y(1,2,3) = 0.56	 y(2,1,3) = 0.44	 
y(1,3,3) = 0.38	 y(3,1,3) = 0.62	 
y(2,3,3) = 0.52	 y(3,2,3) = 0.48	 
{(0, 1), (1, 3), (3, 3), (3, 1), (2, 1), (2, 3), (0, 3)}
obj:  0.9968875504510558
solutions:  1
+ 0.05546751188589542x(1,3) + 0.023771790808240878x(3,3) + 0.05705229793977814x(2,3) + 0.006339144215530904x(0,3) 
[(0, 1), (1, 3), (3, 3), (3, 1), (2, 1), (2, 3), (0, 3)]
cliques:  1 mip: 124
C:  34.3188987724884
x(0,0) = 1.86	 x(0,1) = 24.41	 x(0,2) = 15.56	 x(0,3) = 14.56	 
x(1,0) = 8.49	 x(1,1) = 16.71	 x(1,2) = 23.67	 x(1,3) = 9.71	 
x(2,0) = 32.65	 x(2,1) = 21.47	 x(2,2) = 18.47	 x(2,3) = 9.34	 
x(3,0) = 11.86	 x(3,1) = 1.86	 x(3,2) = 20.86	 x(3,3) = 8.86	 
y(0,1,0) = 0.32	 y(1,0,0) = 0.68	 
y(0,2,0) = 0.92	 y(2,0,0) = 0.08	 
y(0,3,0) = 1.00	 y(3,0,0) = 0.00	 
y(1,2,0) = 0.84	 y(2,1,0) = 0.16	 
y(1,3,0) = 1.00	 y(3,1,0) = 0.00	 
y(2,3,0) = 0.00	 y(3,2,0) = 1.00	 
y(0,1,1) = 0.00	 y(1,0,1) = 1.00	 
y(0,2,1) = 0.36	 y(2,0,1) = 0.64	 
y(0,3,1) = 0.00	 y(3,0,1) = 1.00	 
y(1,2,1) = 0.61	 y(2,1,1) = 0.39	 
y(1,3,1) = 0.32	 y(3,1,1) = 0.68	 
y(2,3,1) = 0.00	 y(3,2,1) = 1.00	 
y(0,1,2) = 0.81	 y(1,0,2) = 0.19	 
y(0,2,2) = 0.24	 y(2,0,2) = 0.76	 
y(0,3,2) = 0.96	 y(3,0,2) = 0.04	 
y(1,2,2) = 0.00	 y(2,1,2) = 1.00	 
y(1,3,2) = 0.57	 y(3,1,2) = 0.43	 
y(2,3,2) = 0.96	 y(3,2,2) = 0.04	 
y(0,1,3) = 0.10	 y(1,0,3) = 0.90	 
y(0,2,3) = 0.23	 y(2,0,3) = 0.77	 
y(0,3,3) = 0.00	 y(3,0,3) = 1.00	 
y(1,2,3) = 0.27	 y(2,1,3) = 0.73	 
y(1,3,3) = 0.09	 y(3,1,3) = 0.91	 
y(2,3,3) = 0.27	 y(3,2,3) = 0.73	 
{(1, 2), (0, 1), (3, 2), (0, 0), (3, 0), (0, 2), (2, 1), (2, 2), (1, 1)}
obj:  1.0000000000000002
erro
[(1, 2), (0, 1), (3, 2), (0, 0), (3, 0), (0, 2), (2, 1), (2, 2), (1, 1)]
cliques:  0 mip: 136
C:  35.0
x(0,0) = 0.76	 x(0,1) = 26.59	 x(0,2) = 15.80	 x(0,3) = 11.09	 
x(1,0) = 2.36	 x(1,1) = 16.25	 x(1,2) = 21.25	 x(1,3) = 9.25	 
x(2,0) = 30.63	 x(2,1) = 22.06	 x(2,2) = 19.06	 x(2,3) = 10.06	 
x(3,0) = 14.00	 x(3,1) = 4.00	 x(3,2) = 23.00	 x(3,3) = 11.00	 
y(0,1,0) = 0.11	 y(1,0,0) = 0.89	 
y(0,2,0) = 0.89	 y(2,0,0) = 0.11	 
y(0,3,0) = 1.00	 y(3,0,0) = 0.00	 
y(1,2,0) = 0.67	 y(2,1,0) = 0.33	 
y(1,3,0) = 1.00	 y(3,1,0) = -0.00	 
y(2,3,0) = 0.00	 y(3,2,0) = 1.00	 
y(0,1,1) = 0.00	 y(1,0,1) = 1.00	 
y(0,2,1) = 0.18	 y(2,0,1) = 0.82	 
y(0,3,1) = 0.00	 y(3,0,1) = 1.00	 
y(1,2,1) = 0.61	 y(2,1,1) = 0.39	 
y(1,3,1) = 0.49	 y(3,1,1) = 0.51	 
y(2,3,1) = 0.00	 y(3,2,1) = 1.00	 
y(0,1,2) = 0.64	 y(1,0,2) = 0.36	 
y(0,2,2) = 0.26	 y(2,0,2) = 0.74	 
y(0,3,2) = 0.93	 y(3,0,2) = 0.07	 
y(1,2,2) = 0.04	 y(2,1,2) = 0.96	 
y(1,3,2) = 0.75	 y(3,1,2) = 0.25	 
y(2,3,2) = 1.00	 y(3,2,2) = 0.00	 
y(0,1,3) = 0.25	 y(1,0,3) = 0.75	 
y(0,2,3) = 0.56	 y(2,0,3) = 0.44	 
y(0,3,3) = 0.19	 y(3,0,3) = 0.81	 
y(1,2,3) = 0.31	 y(2,1,3) = 0.69	 
y(1,3,3) = 0.20	 y(3,1,3) = 0.80	 
y(2,3,3) = 0.47	 y(3,2,3) = 0.53	 
{(0, 1), (1, 3), (3, 3), (3, 1), (2, 1), (2, 3), (0, 3), (1, 1)}
obj:  1.1032698443378504
erro
[(0, 1), (1, 3), (3, 3), (3, 1), (2, 1), (2, 3), (0, 3), (1, 1)]
cliques:  0 mip: 104
C:  34.99999999999988
x(0,0) = 1.08	 x(0,1) = 27.91	 x(0,2) = 18.45	 x(0,3) = 11.08	 
x(1,0) = 3.19	 x(1,1) = 11.30	 x(1,2) = 16.30	 x(1,3) = 4.30	 
x(2,0) = 29.89	 x(2,1) = 19.18	 x(2,2) = 16.18	 x(2,3) = 7.18	 
x(3,0) = 15.30	 x(3,1) = 5.30	 x(3,2) = 24.30	 x(3,3) = 12.30	 
y(0,1,0) = 0.13	 y(1,0,0) = 0.87	 
y(0,2,0) = 0.88	 y(2,0,0) = 0.12	 
y(0,3,0) = 1.00	 y(3,0,0) = 0.00	 
y(1,2,0) = 0.63	 y(2,1,0) = 0.37	 
y(1,3,0) = 1.00	 y(3,1,0) = 0.00	 
y(2,3,0) = 0.00	 y(3,2,0) = 1.00	 
y(0,1,1) = 0.03	 y(1,0,1) = 0.97	 
y(0,2,1) = 0.01	 y(2,0,1) = 0.99	 
y(0,3,1) = 0.00	 y(3,0,1) = 1.00	 
y(1,2,1) = 0.54	 y(2,1,1) = 0.46	 
y(1,3,1) = 0.36	 y(3,1,1) = 0.64	 
y(2,3,1) = 0.00	 y(3,2,1) = 1.00	 
y(0,1,2) = 0.50	 y(1,0,2) = 0.50	 
y(0,2,2) = 0.09	 y(2,0,2) = 0.91	 
y(0,3,2) = 0.99	 y(3,0,2) = 0.01	 
y(1,2,2) = 0.13	 y(2,1,2) = 0.87	 
y(1,3,2) = 1.00	 y(3,1,2) = -0.00	 
y(2,3,2) = 1.00	 y(3,2,2) = 0.00	 
y(0,1,3) = 0.01	 y(1,0,3) = 0.99	 
y(0,2,3) = 0.42	 y(2,0,3) = 0.58	 
y(0,3,3) = 0.28	 y(3,0,3) = 0.72	 
y(1,2,3) = 0.74	 y(2,1,3) = 0.26	 
y(1,3,3) = 1.00	 y(3,1,3) = 0.00	 
y(2,3,3) = 0.85	 y(3,2,3) = 0.15	 
{(1, 2), (1, 3), (3, 3), (0, 2), (2, 3), (0, 3), (1, 1)}
obj:  0.9717891914393426
solutions:  1
+ 0.057319587628865985x(1,3) + 0.009072164948453608x(3,3) + 0.05360824742268042x(2,3) + 0.020618556701030927x(0,3) 
[(1, 2), (1, 3), (3, 3), (0, 2), (2, 3), (0, 3), (1, 1)]
cliques:  1 mip: 103
C:  35.04587576789773
x(0,0) = 0.86	 x(0,1) = 27.12	 x(0,2) = 19.26	 x(0,3) = 10.86	 
x(1,0) = 1.39	 x(1,1) = 9.59	 x(1,2) = 14.59	 x(1,3) = 2.39	 
x(2,0) = 31.85	 x(2,1) = 21.74	 x(2,2) = 18.74	 x(2,3) = 9.74	 
x(3,0) = 15.89	 x(3,1) = 5.89	 x(3,2) = 25.05	 x(3,3) = 12.89	 
y(0,1,0) = 0.06	 y(1,0,0) = 0.94	 
y(0,2,0) = 0.94	 y(2,0,0) = 0.06	 
y(0,3,0) = 1.00	 y(3,0,0) = 0.00	 
y(1,2,0) = 0.71	 y(2,1,0) = 0.29	 
y(1,3,0) = 1.00	 y(3,1,0) = 0.00	 
y(2,3,0) = 0.00	 y(3,2,0) = 1.00	 
y(0,1,1) = 0.00	 y(1,0,1) = 1.00	 
y(0,2,1) = 0.12	 y(2,0,1) = 0.88	 
y(0,3,1) = 0.00	 y(3,0,1) = 1.00	 
y(1,2,1) = 0.97	 y(2,1,1) = 0.03	 
y(1,3,1) = 0.26	 y(3,1,1) = 0.74	 
y(2,3,1) = 0.00	 y(3,2,1) = 1.00	 
y(0,1,2) = 0.56	 y(1,0,2) = 0.44	 
y(0,2,2) = 0.20	 y(2,0,2) = 0.80	 
y(0,3,2) = 0.99	 y(3,0,2) = 0.01	 
y(1,2,2) = 0.68	 y(2,1,2) = 0.32	 
y(1,3,2) = 1.00	 y(3,1,2) = 0.00	 
y(2,3,2) = 1.00	 y(3,2,2) = 0.00	 
y(0,1,3) = 0.00	 y(1,0,3) = 1.00	 
y(0,2,3) = 0.34	 y(2,0,3) = 0.66	 
y(0,3,3) = 0.92	 y(3,0,3) = 0.08	 
y(1,2,3) = 0.87	 y(2,1,3) = 0.13	 
y(1,3,3) = 1.00	 y(3,1,3) = 0.00	 
y(2,3,3) = 0.41	 y(3,2,3) = 0.59	 
{(1, 2), (0, 1), (0, 2), (3, 1), (2, 3), (2, 2), (0, 3), (1, 1)}
obj:  1.0416710163111782
erro
[(1, 2), (0, 1), (0, 2), (3, 1), (2, 3), (2, 2), (0, 3), (1, 1)]
cliques:  0 mip: 0
iterações: 10 cortes cliques encontrados: 8 mip: 1056 objective:  35.04587576789773
Coin0506I Presolve 157 (-171) rows, 90 (-71) columns and 490 (-260) elements
Clp1000I sum of infeasibilities 1.79124e-08 - average 1.14092e-10, 0 fixed columns
Coin0506I Presolve 157 (0) rows, 90 (0) columns and 490 (0) elements
Clp0029I End of values pass after 90 iterations
Clp0000I Optimal - objective value 29
Clp0000I Optimal - objective value 29
Coin0511I After Postsolve, objective 29, infeasibilities - dual 0 (0), primal 0 (0)
Clp0000I Optimal - objective value 29
Clp0000I Optimal - objective value 29
Clp0000I Optimal - objective value 29
Coin0511I After Postsolve, objective 29, infeasibilities - dual 0 (0), primal 0 (0)
Clp0032I Optimal objective 29 - 0 iterations time 0.012, Presolve 0.00, Idiot 0.01
Coin3009W Conflict graph built in 0.000 seconds, density: 0.070%
